# GayBerne ellipsoids in LJ background fluid

units	     lj
atom_style   ellipsoid
dimension    2

#lattice	     sq 0.1 spacing 0.86 0.86 0.86
region	     box block 0 40 0 40 -0.5 0.5
create_box   2 box
create_atoms 1 random 1200 345678 box 

variable V   equal "4.0*PI"
variable rho equal "1.0 / v_V"

#set	     group all type/fraction 2 0.25 95392
set 	     type 1 mass ${rho}
#set 	     type 2 mass 0.01
#set          type 1 volume 3.14
set 	     type 1 shape 1 1 1
#set 	     type 2 shape 3 1 1
set	     group all quat/random 18238

#compute	     rot all temp/asphere
#group	     spheroid type 1
#variable     dof equal count(spheroid)+2
#compute_modify rot extra/dof ${dof}

velocity     all create 2.4 87287 loop geom

pair_style   lj/cut 2.5
pair_coeff   * * 1 1
pair_modify shift yes


# Remove initial overlap:
minimize 1e-4 1e-6 1000 10000
reset_timestep 0


#pair_style   gayberne 1.0 3.0 1.0 4.0
#pair_coeff   1 1 3.0 1.0 1 1 1 1 1 1 2.5
#pair_coeff   1 2 3.0 1.0 1 1 1 0 0 0
#pair_coeff   2 2 1.0 1.0 1 1 0.2 0 0 0

neighbor     0.8 bin

thermo_style custom step epair etotal press vol
thermo	     1000

timestep     0.00001

#compute	     q all property/atom quatw quati quatj quatk

#dump	     1 all custom 100 dump.ellipse.gayberne &
#	     id type x y z c_q[1] c_q[2] c_q[3] c_q[4]

#dump	     2 all image 100 image.*.jpg type type &
#	     zoom 1.6 center d 1 1 1
#dump_modify  2 pad 4 adiam 1 1.0 adiam 2 2.0

dump	     3 all movie 1000 movie.mpg type type &
	     zoom 1.6 center d 0.5 0.5 0.5
dump_modify  3 pad 6 adiam 1 1.0

fix	     2 all enforce2d


# equilibrate to shrink box around dilute system

#run	     2000

# run dynamics on dense system

#unfix	     1
fix	     1 all nve/asphere
fix	     4 all langevin 1.0 1.0 0.01 3245678 angmom 3.333
fix	     3 all propel/self quat 90.0
fix	     5 all nve/limit 0.005

run	     2000000
